sat
(model
(define-fun |goto_symex::&92;guard#1| () Bool false)
(define-fun |goto_symex::&92;guard#2| () Bool false)
(define-fun |__CPROVER_threads_exited#2| () (Array (_ BitVec 32) (_ BitVec 1)) (store ((as const (Array (_ BitVec 32) (_ BitVec 1))) #b0) #b00000000000000000000000000000000 #b1))
(define-fun |pthread_join::thread!0@1#1| () (_ BitVec 32) #b00000000000000000000000000000001)
(define-fun |goto_symex::&92;guard#3| () Bool false)
(define-fun |goto_symex::&92;guard#4| () Bool false)
(define-fun |__CPROVER_threads_exited#3| () (Array (_ BitVec 32) (_ BitVec 1)) ((as const (Array (_ BitVec 32) (_ BitVec 1))) #b0))
(define-fun |pthread_join::thread!0@2#1| () (_ BitVec 32) #b11111111111111111111111110100001)
(define-fun |goto_symex::&92;guard#5| () Bool false)
(define-fun |goto_symex::&92;guard#6| () Bool false)
(define-fun |__CPROVER_threads_exited#4| () (Array (_ BitVec 32) (_ BitVec 1)) ((as const (Array (_ BitVec 32) (_ BitVec 1))) #b0))
(define-fun |pthread_join::thread!0@3#1| () (_ BitVec 32) #b01011111111111111111111111111000)
(define-fun |goto_symex::&92;guard#7| () Bool false)
(define-fun |ctr1#3| () (_ BitVec 32) #b11111111111110111111111111111101)
(define-fun |__VERIFIER_atomic_use1::myidx!1@1#1| () (_ BitVec 32) #b00000000000000000000000000000000)
(define-fun |goto_symex::&92;guard#8| () Bool false)
(define-fun |ctr2#3| () (_ BitVec 32) #b00000000000000000000000000000000)
(define-fun |__VERIFIER_atomic_use2::myidx!1@1#1| () (_ BitVec 32) #b00000000000000000000000000000000)
(define-fun |goto_symex::&92;guard#9| () Bool true)
(define-fun |goto_symex::&92;guard#10| () Bool true)
(define-fun |ctr1#12| () (_ BitVec 32) #b00000000000000000000000000000001)
(define-fun |__VERIFIER_atomic_use1::myidx!2@1#1| () (_ BitVec 32) #b00000000000000000000000000000000)
(define-fun |goto_symex::&92;guard#11| () Bool false)
(define-fun |ctr2#10| () (_ BitVec 32) #b10000000000000000011111111111011)
(define-fun |__VERIFIER_atomic_use2::myidx!2@1#1| () (_ BitVec 32) #b00000000000000000000000000000000)
(define-fun |goto_symex::&92;guard#12| () Bool true)
(define-fun |goto_symex::&92;guard#13| () Bool false)
(define-fun |goto_symex::&92;guard#14| () Bool true)
(define-fun |goto_symex::&92;guard#15| () Bool false)
(define-fun |goto_symex::&92;guard#16| () Bool false)
(define-fun |mutex#7| () (_ BitVec 320) #b10010111001111101011000100000011110000100010111000111100001010110011100101000000100010010001001000010001110000000000000011000000010000110101100100010001111001000101110101000100011100101010101010100000010110100111001000000000001011001110010000000000000000010010000001000010110000100000000000010001000000100100000000000001)
(define-fun |goto_symex::&92;guard#17| () Bool false)
(define-fun |goto_symex::&92;guard#18| () Bool false)
(define-fun |goto_symex::&92;guard#19| () Bool false)
(define-fun |goto_symex::&92;guard#20| () Bool false)
(define-fun |goto_symex::&92;guard#21| () Bool false)
(define-fun |readerprogress1#7| () (_ BitVec 32) #b00000000000000000000000000000000)
(define-fun |__VERIFIER_atomic_check_progress1::readerstart1!3@1#1| () (_ BitVec 32) #b00000000000000000000000000000000)
(define-fun |goto_symex::&92;guard#22| () Bool true)
(define-fun |readerprogress2#7| () (_ BitVec 32) #b00000000000000000000000000000001)
(define-fun |__VERIFIER_atomic_check_progress2::readerstart2!3@1#1| () (_ BitVec 32) #b00000000000000000000000000000001)
(define-fun array_of.0 () (Array (_ BitVec 32) (_ BitVec 1)) ((as const (Array (_ BitVec 32) (_ BitVec 1))) #b0))
(define-fun array.1 () (Array (_ BitVec 32) (_ BitVec 8)) ((as const (Array (_ BitVec 32) (_ BitVec 8))) #b00000000))
(define-fun mutex () (_ BitVec 320) #b00000000000000000000000000000000000000000000000000000000000000000000000000000000000000000000000000000000000000000000000000000000000000000000000000000000000000000000000000000000000000000000000000000000000000000000000000000000000000000000000000000000000000000000000000000000000000000000000000000000000000000000000000000000)
(define-fun |main::1::t1!0@1| () (_ BitVec 32) #b00000000000000000000000000000000)
(define-fun |main::1::t2!0@1| () (_ BitVec 32) #b00000000000000000000000000000000)
(define-fun |__CPROVER_next_thread_id#3| () (_ BitVec 32) #b00000000000000000000000000000001)
(define-fun |main::1::t3!0@1| () (_ BitVec 32) #b00000000000000000000000000000000)
(define-fun |__CPROVER_next_thread_id#6| () (_ BitVec 32) #b00000000000000000000000000000010)
(define-fun |main::1::t1!0@1#4| () (_ BitVec 32) #b00000000000000000000000000000001)
(define-fun |__CPROVER_next_thread_id#9| () (_ BitVec 32) #b00000000000000000000000000000011)
(define-fun |pthread_join#return_value!0#0| () (_ BitVec 32) #b00000000000000000000000000000000)
(define-fun |main::1::t2!0@1#4| () (_ BitVec 32) #b11111111111111111111111110100001)
(define-fun |__CPROVER_next_thread_id#10| () (_ BitVec 32) #b11111111111111111111111110111101)
(define-fun |main::1::t3!0@1#4| () (_ BitVec 32) #b01011111111111111111111111111000)
(define-fun |__CPROVER_next_thread_id#11| () (_ BitVec 32) #b10111111111111111111111111111101)
(define-fun |mutex#4| () (_ BitVec 320) #b00000000000000000000000000000000000000000000000000000000000000000000000000000000000000000000000000000000000000000000000000000000000000000000000000000000000000000000000000000000000000000000000000000000000000000000000000000000000000000000000000000000000000000000000000000000000000000000000000000000000000000000000000000000)
(define-fun |pthread_create::1::this_thread_id!1@0#0| () (_ BitVec 32) #b00000000000000000000000000000000)
(define-fun |idx#2| () (_ BitVec 32) #b00000000000000000000000000000000)
(define-fun |nondet_symex::nondet1| () (_ BitVec 32) #b00000000000000000000000000000000)
(define-fun |ctr1#2| () (_ BitVec 32) #b11111111111110111111111111111101)
(define-fun |nondet_symex::nondet2| () (_ BitVec 32) #b00000000000000000000000000000000)
(define-fun |ctr2#2| () (_ BitVec 32) #b00000000000000000000000000000000)
(define-fun |qrcu_reader1::$tmp::return_value___VERIFIER_nondet_int$1!1@1#0| () (_ BitVec 32) #b00000000000000000000000000000000)
(define-fun |ctr1#6| () (_ BitVec 32) #b01111101111110111111111110111111)
(define-fun |ctr2#5| () (_ BitVec 32) #b00000000000000000000000000000000)
(define-fun |__CPROVER_threads_exited#5| () (Array (_ BitVec 32) (_ BitVec 1)) ((as const (Array (_ BitVec 32) (_ BitVec 1))) #b0))
(define-fun |pthread_create::1::this_thread_id!2@0#0| () (_ BitVec 32) #b00000000000000000000000000000000)
(define-fun |idx#3| () (_ BitVec 32) #b00000000000000000000000000000000)
(define-fun |nondet_symex::nondet3| () (_ BitVec 32) #b00000000000000000000000000000001)
(define-fun |ctr1#11| () (_ BitVec 32) #b00000000000000000000000000000001)
(define-fun |nondet_symex::nondet4| () (_ BitVec 32) #b00000000000000000000000000000000)
(define-fun |ctr2#9| () (_ BitVec 32) #b10000000000000000011111111111011)
(define-fun |qrcu_reader2::$tmp::return_value___VERIFIER_nondet_int$1!2@1#0| () (_ BitVec 32) #b00000000000000000000000000000000)
(define-fun |ctr1#15| () (_ BitVec 32) #b00000000000000000000000000000010)
(define-fun |ctr2#12| () (_ BitVec 32) #b00000000000000000000000000000000)
(define-fun |__CPROVER_threads_exited#7| () (Array (_ BitVec 32) (_ BitVec 1)) ((as const (Array (_ BitVec 32) (_ BitVec 1))) #b0))
(define-fun |pthread_create::1::this_thread_id!3@0#0| () (_ BitVec 32) #b00000000000000000000000000000000)
(define-fun |nondet_symex::nondet5| () (_ BitVec 32) #b00000000000000000000000000000000)
(define-fun |nondet_symex::nondet6| () (_ BitVec 32) #b00000000000000000000000000000001)
(define-fun |readerprogress1#4| () (_ BitVec 32) #b00000000000000000000000000000000)
(define-fun |readerprogress2#4| () (_ BitVec 32) #b00000000000000000000000000000000)
(define-fun |nondet_symex::nondet7| () (_ BitVec 32) #b00000000000000000000000000000000)
(define-fun |ctr1#20| () (_ BitVec 32) #b00000000000000000000000000000000)
(define-fun |ctr2#16| () (_ BitVec 32) #b00000000000000000000000000000000)
(define-fun |qrcu_updater::1::sum!3@1#1| () (_ BitVec 32) #b00000000000000000000000000000000)
(define-fun |ctr2#17| () (_ BitVec 32) #b00000000000000000000000000000000)
(define-fun |ctr1#21| () (_ BitVec 32) #b00000000000000000000000000000001)
(define-fun |nondet_symex::nondet8| () (_ BitVec 32) #b00000000000000000000000000000000)
(define-fun |ctr1#22| () (_ BitVec 32) #b00000000000000000000000000000000)
(define-fun |ctr2#18| () (_ BitVec 32) #b00000000000000000000000000000000)
(define-fun |ctr2#19| () (_ BitVec 32) #b00000000000000000000000000000000)
(define-fun |ctr1#23| () (_ BitVec 32) #b00000000000000000000000000000001)
(define-fun |qrcu_updater::$tmp::return_value___VERIFIER_nondet_int$2!3@1#3| () (_ BitVec 32) #b00000000000000000000000000000000)
(define-fun |qrcu_updater::$tmp::return_value___VERIFIER_nondet_int$2!3@1#0| () (_ BitVec 32) #b00000000000000000000000000000000)
(define-fun |mutex#6| () (_ BitVec 320) #b10010111001111101011000100000011110000100010111000111100001010110011100101000000100010010001001000010001110000000000000011000000010000110101100100010001111001000101110101000100011100101010101010100000010110100111001000000000001011001110010000000000000000010010000001000010110000100000000000010001000000100100000000000001)
(define-fun |idx#4| () (_ BitVec 32) #b00000000000000000000000000010000)
(define-fun |ctr2#20| () (_ BitVec 32) #b00000000000000000000000000000000)
(define-fun |ctr1#24| () (_ BitVec 32) #b00000000000000000000000000000000)
(define-fun |ctr1#26| () (_ BitVec 32) #b00000000000000000000000000000000)
(define-fun |ctr2#22| () (_ BitVec 32) #b00000000000000000000000000000000)
(define-fun |idx#7| () (_ BitVec 32) #b00000000000000000000000000000010)
(define-fun |ctr1#28| () (_ BitVec 32) #b10000010000001000000000000000001)
(define-fun |ctr2#24| () (_ BitVec 32) #b00000000000000000000000000000000)
(define-fun |mutex#10| () (_ BitVec 320) #b00000000000000000000000000000000000000000000000000000000000000000000000000000000000000000000000000000000000000000000000000000000000000000000000000000000000000000000000000000000000000000000000000000000000000000000000000000000000000000000000000000000000000000000000000000000000000000000000000000000000000000000000000000000)
(define-fun |nondet_symex::nondet9| () (_ BitVec 32) #b00000000000000000000000000000000)
(define-fun |readerprogress1#6| () (_ BitVec 32) #b00000000000000000000000000000000)
(define-fun |nondet_symex::nondet10| () (_ BitVec 32) #b00000000000000000000000000000001)
(define-fun |readerprogress2#6| () (_ BitVec 32) #b00000000000000000000000000000001)
(define-fun |__CPROVER_threads_exited#9| () (Array (_ BitVec 32) (_ BitVec 1)) ((as const (Array (_ BitVec 32) (_ BitVec 1))) #b0))
(define-fun |main::1::t1!0@1#1| () (_ BitVec 32) #b00000000000000000000000000000000)
(define-fun |main::1::t2!0@1#1| () (_ BitVec 32) #b00000000000000000000000000000000)
(define-fun |main::1::t3!0@1#1| () (_ BitVec 32) #b00000000000000000000000000000000)
(define-fun |pthread_create::1::this_thread_id!0@1#1| () (_ BitVec 32) #b00000000000000000000000000000000)
(define-fun |pthread_create::1::this_thread_id!0@2#1| () (_ BitVec 32) #b00000000000000000000000000000000)
(define-fun |pthread_create::1::this_thread_id!0@3#1| () (_ BitVec 32) #b00000000000000000000000000000000)
(define-fun |qrcu_reader1::1::myidx!1@1#1| () (_ BitVec 32) #b00000000000000000000000000000000)
(define-fun |qrcu_reader1::$tmp::return_value___VERIFIER_nondet_int$2!1@1#1| () (_ BitVec 32) #b00000000000000000000000000000000)
(define-fun |qrcu_reader1::$tmp::return_value___VERIFIER_nondet_int$1!1@1#1| () (_ BitVec 32) #b00000000000000000000000000000000)
(define-fun |qrcu_reader2::1::myidx!2@1#1| () (_ BitVec 32) #b00000000000000000000000000000000)
(define-fun |qrcu_reader2::$tmp::return_value___VERIFIER_nondet_int$2!2@1#1| () (_ BitVec 32) #b00000000000000000000000000000000)
(define-fun |qrcu_reader2::$tmp::return_value___VERIFIER_nondet_int$1!2@1#1| () (_ BitVec 32) #b00000000000000000000000000000000)
(define-fun |qrcu_updater::1::i!3@1#1| () (_ BitVec 32) #b00000000000000000000000000000000)
(define-fun |qrcu_updater::1::readerstart1!3@1#1| () (_ BitVec 32) #b00000000000000000000000000000000)
(define-fun |qrcu_updater::1::readerstart2!3@1#1| () (_ BitVec 32) #b00000000000000000000000000000000)
(define-fun |qrcu_updater::$tmp::return_value___VERIFIER_nondet_int$1!3@1#1| () (_ BitVec 32) #b00000000000000000000000000000000)
(define-fun |qrcu_updater::$tmp::return_value___VERIFIER_nondet_int$2!3@1#1| () (_ BitVec 32) #b00000000000000000000000000000000)
(define-fun |__VERIFIER_atomic_check_progress1::$tmp::return_value___VERIFIER_nondet_int$1!3@1#1| () (_ BitVec 32) #b00000000000000000000000000000000)
(define-fun |__VERIFIER_atomic_check_progress2::$tmp::return_value___VERIFIER_nondet_int$1!3@1#1| () (_ BitVec 32) #b00000000000000000000000000000000)
(define-fun |mutex#3| () (_ BitVec 320) #b00000000000000000000000000000000000000000000000000000000000000000000000000000000000000000000000000000000000000000000000000000000000000000000000000000000000000000000000000000000000000000000000000000000000000000000000000000000000000000000000000000000000000000000000000000000000000000000000000000000000000000000000000000000)
(define-fun |memory_model::choice_rf_0_33_0_8_T_0| () Bool false)
(define-fun |memory_model::choice_rf_0_33_1_12_T_1| () Bool false)
(define-fun |__CPROVER_threads_exited#6$wclk$8| () (_ BitVec 7) #b1111101)
(define-fun |__CPROVER_threads_exited#2$rclk$8| () (_ BitVec 7) #b1110100)
(define-fun |memory_model::choice_rf_0_33_2_12_T_2| () Bool true)
(define-fun |__CPROVER_threads_exited#8$wclk$8| () (_ BitVec 7) #b1110011)
(define-fun |memory_model::choice_rf_0_33_3_31_T_3| () Bool false)
(define-fun |__CPROVER_threads_exited#10$wclk$8| () (_ BitVec 7) #b1110010)
(define-fun |memory_model::choice_rf_0_37_0_8_T_4| () Bool false)
(define-fun |memory_model::choice_rf_0_37_1_12_T_5| () Bool false)
(define-fun |__CPROVER_threads_exited#3$rclk$8| () (_ BitVec 7) #b1111000)
(define-fun |memory_model::choice_rf_0_37_2_12_T_6| () Bool false)
(define-fun |memory_model::choice_rf_0_37_3_31_T_7| () Bool false)
(define-fun |memory_model::choice_rf_0_41_0_8_T_8| () Bool false)
(define-fun |memory_model::choice_rf_0_41_1_12_T_9| () Bool false)
(define-fun |__CPROVER_threads_exited#4$rclk$8| () (_ BitVec 7) #b1111100)
(define-fun |memory_model::choice_rf_0_41_2_12_T_10| () Bool false)
(define-fun |memory_model::choice_rf_0_41_3_31_T_11| () Bool false)
(define-fun |memory_model::choice_rf_1_11_0_8_T_12| () Bool false)
(define-fun |__CPROVER_threads_exited#1$wclk$8| () (_ BitVec 7) #b0001000)
(define-fun |__CPROVER_threads_exited#5$rclk$8| () (_ BitVec 7) #b1111011)
(define-fun |memory_model::choice_rf_1_11_2_12_T_13| () Bool false)
(define-fun |memory_model::choice_rf_1_11_3_31_T_14| () Bool false)
(define-fun |memory_model::choice_rf_2_11_0_8_T_15| () Bool true)
(define-fun |__CPROVER_threads_exited#7$rclk$8| () (_ BitVec 7) #b1110001)
(define-fun |memory_model::choice_rf_2_11_1_12_T_16| () Bool false)
(define-fun |memory_model::choice_rf_2_11_3_31_T_17| () Bool false)
(define-fun |memory_model::choice_rf_3_30_0_8_T_18| () Bool false)
(define-fun |__CPROVER_threads_exited#9$rclk$8| () (_ BitVec 7) #b1110001)
(define-fun |memory_model::choice_rf_3_30_1_12_T_19| () Bool false)
(define-fun |memory_model::choice_rf_3_30_2_12_T_20| () Bool false)
(define-fun |memory_model::choice_rf_0_22_0_6_T_21| () Bool false)
(define-fun |memory_model::choice_rf_0_22_0_19_T_22| () Bool true)
(define-fun |memory_model::choice_rf_0_26_0_6_T_23| () Bool false)
(define-fun |memory_model::choice_rf_0_26_0_19_T_24| () Bool false)
(define-fun |memory_model::choice_rf_0_26_0_23_T_25| () Bool true)
(define-fun |memory_model::choice_rf_0_32_0_6_T_26| () Bool false)
(define-fun |memory_model::choice_rf_0_32_0_19_T_27| () Bool false)
(define-fun |memory_model::choice_rf_0_32_0_23_T_28| () Bool false)
(define-fun |memory_model::choice_rf_0_32_0_27_T_29| () Bool true)
(define-fun |memory_model::choice_rf_0_36_0_6_T_30| () Bool false)
(define-fun |memory_model::choice_rf_0_36_0_19_T_31| () Bool false)
(define-fun |memory_model::choice_rf_0_36_0_23_T_32| () Bool false)
(define-fun |memory_model::choice_rf_0_36_0_27_T_33| () Bool false)
(define-fun |memory_model::choice_rf_0_40_0_6_T_34| () Bool false)
(define-fun |memory_model::choice_rf_0_40_0_19_T_35| () Bool false)
(define-fun |memory_model::choice_rf_0_40_0_23_T_36| () Bool false)
(define-fun |memory_model::choice_rf_0_40_0_27_T_37| () Bool false)
(define-fun |memory_model::choice_rf_1_0_0_11_F_38| () Bool true)
(define-fun |idx#1$wclk$8| () (_ BitVec 7) #b0001011)
(define-fun |idx#2$rclk$8| () (_ BitVec 7) #b1011111)
(define-fun |memory_model::choice_rf_1_0_3_15_F_39| () Bool false)
(define-fun |idx#5$wclk$8| () (_ BitVec 7) #b1000000)
(define-fun |memory_model::choice_rf_1_0_3_20_F_40| () Bool false)
(define-fun |idx#6$wclk$8| () (_ BitVec 7) #b1000101)
(define-fun |memory_model::choice_rf_2_0_0_11_F_41| () Bool true)
(define-fun |idx#3$rclk$8| () (_ BitVec 7) #b1011111)
(define-fun |memory_model::choice_rf_2_0_3_15_F_42| () Bool false)
(define-fun |memory_model::choice_rf_2_0_3_20_F_43| () Bool false)
(define-fun |memory_model::choice_rf_3_12_0_11_F_44| () Bool false)
(define-fun |idx#4$rclk$8| () (_ BitVec 7) #b0110101)
(define-fun |memory_model::choice_rf_3_23_0_11_F_45| () Bool false)
(define-fun |idx#7$rclk$8| () (_ BitVec 7) #b1001100)
(define-fun |memory_model::choice_rf_3_23_3_15_F_46| () Bool false)
(define-fun |memory_model::choice_rf_3_23_3_20_F_47| () Bool false)
(define-fun |memory_model::choice_rf_1_1_0_9_F_48| () Bool false)
(define-fun |ctr1#1$wclk$8| () (_ BitVec 7) #b0001001)
(define-fun |ctr1#2$rclk$8| () (_ BitVec 7) #b1110001)
(define-fun |memory_model::choice_rf_1_1_2_2_F_49| () Bool false)
(define-fun |ctr1#14$wclk$8| () (_ BitVec 7) #b1100001)
(define-fun |memory_model::choice_rf_1_1_2_10_F_50| () Bool false)
(define-fun |ctr1#19$wclk$8| () (_ BitVec 7) #b1110000)
(define-fun |memory_model::choice_rf_1_1_3_17_F_51| () Bool false)
(define-fun |ctr1#25$wclk$8| () (_ BitVec 7) #b1000010)
(define-fun |memory_model::choice_rf_1_1_3_19_F_52| () Bool false)
(define-fun |ctr1#27$wclk$8| () (_ BitVec 7) #b1000100)
(define-fun |memory_model::choice_rf_1_8_0_9_F_53| () Bool false)
(define-fun |ctr1#6$rclk$8| () (_ BitVec 7) #b1111000)
(define-fun |memory_model::choice_rf_1_8_1_2_F_54| () Bool false)
(define-fun |memory_model::choice_rf_1_8_2_2_F_55| () Bool false)
(define-fun |memory_model::choice_rf_1_8_2_10_F_56| () Bool false)
(define-fun |memory_model::choice_rf_1_8_3_17_F_57| () Bool false)
(define-fun |memory_model::choice_rf_1_8_3_19_F_58| () Bool false)
(define-fun |memory_model::choice_rf_2_1_0_9_F_59| () Bool true)
(define-fun |ctr1#11$rclk$8| () (_ BitVec 7) #b1100001)
(define-fun |memory_model::choice_rf_2_1_1_2_F_60| () Bool false)
(define-fun |ctr1#5$wclk$8| () (_ BitVec 7) #b1110001)
(define-fun |memory_model::choice_rf_2_1_1_10_F_61| () Bool false)
(define-fun |ctr1#10$wclk$8| () (_ BitVec 7) #b1111000)
(define-fun |memory_model::choice_rf_2_1_3_17_F_62| () Bool false)
(define-fun |memory_model::choice_rf_2_1_3_19_F_63| () Bool false)
(define-fun |memory_model::choice_rf_2_8_0_9_F_64| () Bool false)
(define-fun |ctr1#15$rclk$8| () (_ BitVec 7) #b1110000)
(define-fun |memory_model::choice_rf_2_8_1_2_F_65| () Bool false)
(define-fun |memory_model::choice_rf_2_8_1_10_F_66| () Bool false)
(define-fun |memory_model::choice_rf_2_8_2_2_F_67| () Bool true)
(define-fun |memory_model::choice_rf_2_8_3_17_F_68| () Bool false)
(define-fun |memory_model::choice_rf_2_8_3_19_F_69| () Bool false)
(define-fun |memory_model::choice_rf_3_2_0_9_F_70| () Bool false)
(define-fun |ctr1#20$rclk$8| () (_ BitVec 7) #b0011110)
(define-fun |memory_model::choice_rf_3_2_1_2_F_71| () Bool false)
(define-fun |memory_model::choice_rf_3_2_1_10_F_72| () Bool false)
(define-fun |memory_model::choice_rf_3_2_2_2_F_73| () Bool false)
(define-fun |memory_model::choice_rf_3_2_2_10_F_74| () Bool false)
(define-fun |memory_model::choice_rf_3_5_0_9_F_75| () Bool true)
(define-fun |ctr1#21$rclk$8| () (_ BitVec 7) #b0101000)
(define-fun |memory_model::choice_rf_3_5_1_2_F_76| () Bool false)
(define-fun |memory_model::choice_rf_3_5_1_10_F_77| () Bool false)
(define-fun |memory_model::choice_rf_3_5_2_2_F_78| () Bool false)
(define-fun |memory_model::choice_rf_3_5_2_10_F_79| () Bool false)
(define-fun |memory_model::choice_rf_3_6_0_9_F_80| () Bool false)
(define-fun |ctr1#22$rclk$8| () (_ BitVec 7) #b0101001)
(define-fun |memory_model::choice_rf_3_6_1_2_F_81| () Bool false)
(define-fun |memory_model::choice_rf_3_6_1_10_F_82| () Bool false)
(define-fun |memory_model::choice_rf_3_6_2_2_F_83| () Bool false)
(define-fun |memory_model::choice_rf_3_6_2_10_F_84| () Bool false)
(define-fun |memory_model::choice_rf_3_9_0_9_F_85| () Bool true)
(define-fun |ctr1#23$rclk$8| () (_ BitVec 7) #b0110001)
(define-fun |memory_model::choice_rf_3_9_1_2_F_86| () Bool false)
(define-fun |memory_model::choice_rf_3_9_1_10_F_87| () Bool false)
(define-fun |memory_model::choice_rf_3_9_2_2_F_88| () Bool false)
(define-fun |memory_model::choice_rf_3_9_2_10_F_89| () Bool false)
(define-fun |memory_model::choice_rf_3_16_0_9_F_90| () Bool false)
(define-fun |ctr1#24$rclk$8| () (_ BitVec 7) #b1000001)
(define-fun |memory_model::choice_rf_3_16_1_2_F_91| () Bool false)
(define-fun |memory_model::choice_rf_3_16_1_10_F_92| () Bool false)
(define-fun |memory_model::choice_rf_3_16_2_2_F_93| () Bool false)
(define-fun |memory_model::choice_rf_3_16_2_10_F_94| () Bool false)
(define-fun |memory_model::choice_rf_3_18_0_9_F_95| () Bool false)
(define-fun |ctr1#26$rclk$8| () (_ BitVec 7) #b1000011)
(define-fun |memory_model::choice_rf_3_18_1_2_F_96| () Bool false)
(define-fun |memory_model::choice_rf_3_18_1_10_F_97| () Bool false)
(define-fun |memory_model::choice_rf_3_18_2_2_F_98| () Bool false)
(define-fun |memory_model::choice_rf_3_18_2_10_F_99| () Bool false)
(define-fun |memory_model::choice_rf_3_18_3_17_F_100| () Bool false)
(define-fun |memory_model::choice_rf_3_24_0_9_F_101| () Bool false)
(define-fun |ctr1#28$rclk$8| () (_ BitVec 7) #b1001101)
(define-fun |memory_model::choice_rf_3_24_1_2_F_102| () Bool false)
(define-fun |memory_model::choice_rf_3_24_1_10_F_103| () Bool false)
(define-fun |memory_model::choice_rf_3_24_2_2_F_104| () Bool false)
(define-fun |memory_model::choice_rf_3_24_2_10_F_105| () Bool false)
(define-fun |memory_model::choice_rf_3_24_3_17_F_106| () Bool false)
(define-fun |memory_model::choice_rf_3_24_3_19_F_107| () Bool false)
(define-fun |memory_model::choice_rf_1_3_0_10_F_108| () Bool false)
(define-fun |ctr2#1$wclk$8| () (_ BitVec 7) #b0001010)
(define-fun |ctr2#2$rclk$8| () (_ BitVec 7) #b1110100)
(define-fun |memory_model::choice_rf_1_3_2_4_F_109| () Bool false)
(define-fun |ctr2#11$wclk$8| () (_ BitVec 7) #b1101100)
(define-fun |memory_model::choice_rf_1_3_2_9_F_110| () Bool false)
(define-fun |ctr2#15$wclk$8| () (_ BitVec 7) #b1110000)
(define-fun |memory_model::choice_rf_1_3_3_14_F_111| () Bool false)
(define-fun |ctr2#21$wclk$8| () (_ BitVec 7) #b0110111)
(define-fun |memory_model::choice_rf_1_3_3_22_F_112| () Bool false)
(define-fun |ctr2#23$wclk$8| () (_ BitVec 7) #b1000111)
(define-fun |memory_model::choice_rf_1_7_0_10_F_113| () Bool false)
(define-fun |ctr2#5$rclk$8| () (_ BitVec 7) #b1111000)
(define-fun |memory_model::choice_rf_1_7_1_4_F_114| () Bool false)
(define-fun |memory_model::choice_rf_1_7_2_4_F_115| () Bool false)
(define-fun |memory_model::choice_rf_1_7_2_9_F_116| () Bool false)
(define-fun |memory_model::choice_rf_1_7_3_14_F_117| () Bool false)
(define-fun |memory_model::choice_rf_1_7_3_22_F_118| () Bool false)
(define-fun |memory_model::choice_rf_2_3_0_10_F_119| () Bool false)
(define-fun |ctr2#9$rclk$8| () (_ BitVec 7) #b1101100)
(define-fun |memory_model::choice_rf_2_3_1_4_F_120| () Bool false)
(define-fun |ctr2#4$wclk$8| () (_ BitVec 7) #b1110100)
(define-fun |memory_model::choice_rf_2_3_1_9_F_121| () Bool false)
(define-fun |ctr2#8$wclk$8| () (_ BitVec 7) #b1111000)
(define-fun |memory_model::choice_rf_2_3_3_14_F_122| () Bool false)
(define-fun |memory_model::choice_rf_2_3_3_22_F_123| () Bool false)
(define-fun |memory_model::choice_rf_2_7_0_10_F_124| () Bool false)
(define-fun |ctr2#12$rclk$8| () (_ BitVec 7) #b1110000)
(define-fun |memory_model::choice_rf_2_7_1_4_F_125| () Bool false)
(define-fun |memory_model::choice_rf_2_7_1_9_F_126| () Bool false)
(define-fun |memory_model::choice_rf_2_7_2_4_F_127| () Bool false)
(define-fun |memory_model::choice_rf_2_7_3_14_F_128| () Bool false)
(define-fun |memory_model::choice_rf_2_7_3_22_F_129| () Bool false)
(define-fun |memory_model::choice_rf_3_3_0_10_F_130| () Bool false)
(define-fun |ctr2#16$rclk$8| () (_ BitVec 7) #b0011111)
(define-fun |memory_model::choice_rf_3_3_1_4_F_131| () Bool false)
(define-fun |memory_model::choice_rf_3_3_1_9_F_132| () Bool false)
(define-fun |memory_model::choice_rf_3_3_2_4_F_133| () Bool false)
(define-fun |memory_model::choice_rf_3_3_2_9_F_134| () Bool false)
(define-fun |memory_model::choice_rf_3_4_0_10_F_135| () Bool true)
(define-fun |ctr2#17$rclk$8| () (_ BitVec 7) #b0100000)
(define-fun |memory_model::choice_rf_3_4_1_4_F_136| () Bool false)
(define-fun |memory_model::choice_rf_3_4_1_9_F_137| () Bool false)
(define-fun |memory_model::choice_rf_3_4_2_4_F_138| () Bool false)
(define-fun |memory_model::choice_rf_3_4_2_9_F_139| () Bool false)
(define-fun |memory_model::choice_rf_3_7_0_10_F_140| () Bool false)
(define-fun |ctr2#18$rclk$8| () (_ BitVec 7) #b0101100)
(define-fun |memory_model::choice_rf_3_7_1_4_F_141| () Bool false)
(define-fun |memory_model::choice_rf_3_7_1_9_F_142| () Bool false)
(define-fun |memory_model::choice_rf_3_7_2_4_F_143| () Bool false)
(define-fun |memory_model::choice_rf_3_7_2_9_F_144| () Bool false)
(define-fun |memory_model::choice_rf_3_8_0_10_F_145| () Bool true)
(define-fun |ctr2#19$rclk$8| () (_ BitVec 7) #b0110000)
(define-fun |memory_model::choice_rf_3_8_1_4_F_146| () Bool false)
(define-fun |memory_model::choice_rf_3_8_1_9_F_147| () Bool false)
(define-fun |memory_model::choice_rf_3_8_2_4_F_148| () Bool false)
(define-fun |memory_model::choice_rf_3_8_2_9_F_149| () Bool false)
(define-fun |memory_model::choice_rf_3_13_0_10_F_150| () Bool false)
(define-fun |ctr2#20$rclk$8| () (_ BitVec 7) #b0110110)
(define-fun |memory_model::choice_rf_3_13_1_4_F_151| () Bool false)
(define-fun |memory_model::choice_rf_3_13_1_9_F_152| () Bool false)
(define-fun |memory_model::choice_rf_3_13_2_4_F_153| () Bool false)
(define-fun |memory_model::choice_rf_3_13_2_9_F_154| () Bool false)
(define-fun |memory_model::choice_rf_3_21_0_10_F_155| () Bool false)
(define-fun |ctr2#22$rclk$8| () (_ BitVec 7) #b1000110)
(define-fun |memory_model::choice_rf_3_21_1_4_F_156| () Bool false)
(define-fun |memory_model::choice_rf_3_21_1_9_F_157| () Bool false)
(define-fun |memory_model::choice_rf_3_21_2_4_F_158| () Bool false)
(define-fun |memory_model::choice_rf_3_21_2_9_F_159| () Bool false)
(define-fun |memory_model::choice_rf_3_21_3_14_F_160| () Bool false)
(define-fun |memory_model::choice_rf_3_25_0_10_F_161| () Bool false)
(define-fun |ctr2#24$rclk$8| () (_ BitVec 7) #b1001110)
(define-fun |memory_model::choice_rf_3_25_1_4_F_162| () Bool false)
(define-fun |memory_model::choice_rf_3_25_1_9_F_163| () Bool false)
(define-fun |memory_model::choice_rf_3_25_2_4_F_164| () Bool false)
(define-fun |memory_model::choice_rf_3_25_2_9_F_165| () Bool false)
(define-fun |memory_model::choice_rf_3_25_3_14_F_166| () Bool false)
(define-fun |memory_model::choice_rf_3_25_3_22_F_167| () Bool false)
(define-fun |memory_model::choice_rf_3_1_0_13_F_168| () Bool true)
(define-fun |readerprogress1#1$wclk$8| () (_ BitVec 7) #b0001101)
(define-fun |readerprogress1#4$rclk$8| () (_ BitVec 7) #b0011100)
(define-fun |memory_model::choice_rf_3_1_1_5_F_169| () Bool false)
(define-fun |readerprogress1#2$wclk$8| () (_ BitVec 7) #b1110101)
(define-fun |memory_model::choice_rf_3_1_1_6_F_170| () Bool false)
(define-fun |readerprogress1#3$wclk$8| () (_ BitVec 7) #b1110111)
(define-fun |memory_model::choice_rf_3_28_0_13_F_171| () Bool false)
(define-fun |readerprogress1#6$rclk$8| () (_ BitVec 7) #b1100111)
(define-fun |memory_model::choice_rf_3_28_1_5_F_172| () Bool false)
(define-fun |memory_model::choice_rf_3_28_1_6_F_173| () Bool false)
(define-fun |memory_model::choice_rf_3_0_0_14_F_174| () Bool true)
(define-fun |readerprogress2#1$wclk$8| () (_ BitVec 7) #b0001110)
(define-fun |readerprogress2#4$rclk$8| () (_ BitVec 7) #b0011100)
(define-fun |memory_model::choice_rf_3_0_2_5_F_175| () Bool false)
(define-fun |readerprogress2#2$wclk$8| () (_ BitVec 7) #b1101101)
(define-fun |memory_model::choice_rf_3_0_2_6_F_176| () Bool false)
(define-fun |readerprogress2#3$wclk$8| () (_ BitVec 7) #b1101111)
(define-fun |memory_model::choice_rf_3_29_0_14_F_177| () Bool false)
(define-fun |readerprogress2#6$rclk$8| () (_ BitVec 7) #b1101110)
(define-fun |memory_model::choice_rf_3_29_2_5_F_178| () Bool true)
(define-fun |memory_model::choice_rf_3_29_2_6_F_179| () Bool false)
(define-fun |memory_model::choice_rf_0_42_0_12_F_180| () Bool false)
(define-fun |memory_model::choice_rf_0_42_0_18_F_181| () Bool false)
(define-fun |memory_model::choice_rf_0_42_3_11_F_182| () Bool false)
(define-fun |mutex#9$wclk$8| () (_ BitVec 7) #b0110100)
(define-fun |mutex#3$rclk$8| () (_ BitVec 7) #b1111101)
(define-fun |memory_model::choice_rf_0_42_3_27_F_183| () Bool false)
(define-fun |mutex#12$wclk$8| () (_ BitVec 7) #b1010110)
(define-fun |memory_model::choice_rf_0_43_0_12_F_184| () Bool false)
(define-fun |memory_model::choice_rf_0_43_0_18_F_185| () Bool false)
(define-fun |memory_model::choice_rf_0_43_3_11_F_186| () Bool false)
(define-fun |mutex#4$rclk$8| () (_ BitVec 7) #b1111110)
(define-fun |memory_model::choice_rf_0_43_3_27_F_187| () Bool false)
(define-fun |memory_model::choice_rf_3_10_0_12_F_188| () Bool false)
(define-fun |mutex#1$wclk$8| () (_ BitVec 7) #b0001100)
(define-fun |mutex#6$rclk$8| () (_ BitVec 7) #b0110100)
(define-fun |memory_model::choice_rf_3_10_0_18_F_189| () Bool false)
(define-fun |mutex#2$wclk$8| () (_ BitVec 7) #b0010010)
(define-fun |memory_model::choice_rf_3_10_0_44_F_190| () Bool false)
(define-fun |mutex#5$wclk$8| () (_ BitVec 7) #b1111111)
(define-fun |memory_model::choice_rf_3_26_0_12_F_191| () Bool false)
(define-fun |mutex#10$rclk$8| () (_ BitVec 7) #b1010110)
(define-fun |memory_model::choice_rf_3_26_0_18_F_192| () Bool false)
(define-fun |memory_model::choice_rf_3_26_0_44_F_193| () Bool false)
(define-fun |memory_model::choice_rf_3_26_3_11_F_194| () Bool false)
(define-fun |main::1::t1!0@1#3| () (_ BitVec 32) #b00000000000000000000000000000001)
(define-fun |memory_model::choice_rf_0_30_0_15_F_195| () Bool false)
(define-fun |memory_model::choice_rf_0_30_0_20_F_196| () Bool true)
(define-fun |memory_model::choice_rf_0_31_0_15_F_197| () Bool false)
(define-fun |memory_model::choice_rf_0_31_0_20_F_198| () Bool true)
(define-fun |main::1::t2!0@1#3| () (_ BitVec 32) #b00000000000000000000000000000000)
(define-fun |memory_model::choice_rf_0_34_0_16_F_199| () Bool false)
(define-fun |memory_model::choice_rf_0_34_0_24_F_200| () Bool false)
(define-fun |memory_model::choice_rf_0_35_0_16_F_201| () Bool false)
(define-fun |memory_model::choice_rf_0_35_0_24_F_202| () Bool false)
(define-fun |main::1::t3!0@1#3| () (_ BitVec 32) #b00000000000000000000000000000000)
(define-fun |memory_model::choice_rf_0_38_0_17_F_203| () Bool false)
(define-fun |memory_model::choice_rf_0_38_0_28_F_204| () Bool false)
(define-fun |memory_model::choice_rf_0_39_0_17_F_205| () Bool false)
(define-fun |memory_model::choice_rf_0_39_0_28_F_206| () Bool false)
(define-fun |memory_model::choice_ws-ext_0_8_1_12_T_207| () Bool true)
(define-fun |memory_model::choice_ws-ext_0_8_2_12_T_208| () Bool true)
(define-fun |memory_model::choice_ws-ext_0_8_3_31_T_209| () Bool true)
(define-fun |memory_model::choice_ws-ext_1_12_2_12_T_210| () Bool false)
(define-fun |memory_model::choice_ws-ext_1_12_3_31_T_211| () Bool false)
(define-fun |memory_model::choice_ws-ext_2_12_3_31_T_212| () Bool false)
(define-fun |memory_model::choice_ws-ext_0_11_3_15_F_213| () Bool true)
(define-fun |memory_model::choice_ws-ext_0_11_3_20_F_214| () Bool true)
(define-fun |memory_model::choice_ws-ext_0_9_1_2_F_215| () Bool true)
(define-fun |memory_model::choice_ws-ext_0_9_1_10_F_216| () Bool true)
(define-fun |memory_model::choice_ws-ext_0_9_2_2_F_217| () Bool true)
(define-fun |memory_model::choice_ws-ext_0_9_2_10_F_218| () Bool true)
(define-fun |memory_model::choice_ws-ext_0_9_3_17_F_219| () Bool true)
(define-fun |memory_model::choice_ws-ext_0_9_3_19_F_220| () Bool true)
(define-fun |memory_model::choice_ws-ext_1_2_2_2_F_221| () Bool false)
(define-fun |memory_model::choice_ws-ext_1_2_2_10_F_222| () Bool false)
(define-fun |memory_model::choice_ws-ext_1_2_3_17_F_223| () Bool false)
(define-fun |memory_model::choice_ws-ext_1_2_3_19_F_224| () Bool false)
(define-fun |memory_model::choice_ws-ext_1_10_2_2_F_225| () Bool false)
(define-fun |memory_model::choice_ws-ext_1_10_2_10_F_226| () Bool false)
(define-fun |memory_model::choice_ws-ext_1_10_3_17_F_227| () Bool false)
(define-fun |memory_model::choice_ws-ext_1_10_3_19_F_228| () Bool false)
(define-fun |memory_model::choice_ws-ext_2_2_3_17_F_229| () Bool false)
(define-fun |memory_model::choice_ws-ext_2_2_3_19_F_230| () Bool false)
(define-fun |memory_model::choice_ws-ext_2_10_3_17_F_231| () Bool false)
(define-fun |memory_model::choice_ws-ext_2_10_3_19_F_232| () Bool false)
(define-fun |memory_model::choice_ws-ext_0_10_1_4_F_233| () Bool true)
(define-fun |memory_model::choice_ws-ext_0_10_1_9_F_234| () Bool true)
(define-fun |memory_model::choice_ws-ext_0_10_2_4_F_235| () Bool true)
(define-fun |memory_model::choice_ws-ext_0_10_2_9_F_236| () Bool true)
(define-fun |memory_model::choice_ws-ext_0_10_3_14_F_237| () Bool true)
(define-fun |memory_model::choice_ws-ext_0_10_3_22_F_238| () Bool true)
(define-fun |memory_model::choice_ws-ext_1_4_2_4_F_239| () Bool false)
(define-fun |memory_model::choice_ws-ext_1_4_2_9_F_240| () Bool false)
(define-fun |memory_model::choice_ws-ext_1_4_3_14_F_241| () Bool false)
(define-fun |memory_model::choice_ws-ext_1_4_3_22_F_242| () Bool false)
(define-fun |memory_model::choice_ws-ext_1_9_2_4_F_243| () Bool false)
(define-fun |memory_model::choice_ws-ext_1_9_2_9_F_244| () Bool false)
(define-fun |memory_model::choice_ws-ext_1_9_3_14_F_245| () Bool false)
(define-fun |memory_model::choice_ws-ext_1_9_3_22_F_246| () Bool false)
(define-fun |memory_model::choice_ws-ext_2_4_3_14_F_247| () Bool false)
(define-fun |memory_model::choice_ws-ext_2_4_3_22_F_248| () Bool false)
(define-fun |memory_model::choice_ws-ext_2_9_3_14_F_249| () Bool false)
(define-fun |memory_model::choice_ws-ext_2_9_3_22_F_250| () Bool false)
(define-fun |memory_model::choice_ws-ext_0_13_1_5_F_251| () Bool true)
(define-fun |memory_model::choice_ws-ext_0_13_1_6_F_252| () Bool true)
(define-fun |memory_model::choice_ws-ext_0_14_2_5_F_253| () Bool true)
(define-fun |memory_model::choice_ws-ext_0_14_2_6_F_254| () Bool true)
(define-fun |memory_model::choice_ws-ext_0_12_3_11_F_255| () Bool true)
(define-fun |memory_model::choice_ws-ext_0_12_3_27_F_256| () Bool true)
(define-fun |memory_model::choice_ws-ext_0_18_3_11_F_257| () Bool true)
(define-fun |memory_model::choice_ws-ext_0_18_3_27_F_258| () Bool true)
(define-fun |memory_model::choice_ws-ext_0_44_3_11_F_259| () Bool false)
(define-fun |memory_model::choice_ws-ext_0_44_3_27_F_260| () Bool false)
(define-fun t1$21$spwnclk$8 () (_ BitVec 7) #b0010101)
(define-fun t1$25$spwnclk$8 () (_ BitVec 7) #b0011000)
(define-fun t1$29$spwnclk$8 () (_ BitVec 7) #b0011011)
(define-fun |__CPROVER_dead_object#1$wclk$8| () (_ BitVec 7) #b0000000)
(define-fun |__CPROVER_deallocated#1$wclk$8| () (_ BitVec 7) #b0000001)
(define-fun |__CPROVER_malloc_is_new_array#1$wclk$8| () (_ BitVec 7) #b0000010)
(define-fun |__CPROVER_malloc_object#1$wclk$8| () (_ BitVec 7) #b0000011)
(define-fun |__CPROVER_malloc_size#1$wclk$8| () (_ BitVec 7) #b0000100)
(define-fun |__CPROVER_memory_leak#1$wclk$8| () (_ BitVec 7) #b0000101)
(define-fun |__CPROVER_next_thread_id#1$wclk$8| () (_ BitVec 7) #b0000110)
(define-fun |__CPROVER_pipe_count#1$wclk$8| () (_ BitVec 7) #b0000111)
(define-fun |main::1::t1!0@1#1$wclk$8| () (_ BitVec 7) #b0001111)
(define-fun |main::1::t2!0@1#1$wclk$8| () (_ BitVec 7) #b0010000)
(define-fun |main::1::t3!0@1#1$wclk$8| () (_ BitVec 7) #b0010001)
(define-fun |__CPROVER_next_thread_id#2$wclk$8| () (_ BitVec 7) #b0010011)
(define-fun |main::1::t1!0@1#2$wclk$8| () (_ BitVec 7) #b0010100)
(define-fun |__CPROVER_next_thread_id#3$rclk$8| () (_ BitVec 7) #b0010110)
(define-fun |__CPROVER_next_thread_id#5$wclk$8| () (_ BitVec 7) #b0010110)
(define-fun |main::1::t2!0@1#2$wclk$8| () (_ BitVec 7) #b0010111)
(define-fun |__CPROVER_next_thread_id#6$rclk$8| () (_ BitVec 7) #b0011001)
(define-fun |__CPROVER_next_thread_id#8$wclk$8| () (_ BitVec 7) #b0011001)
(define-fun |main::1::t3!0@1#2$wclk$8| () (_ BitVec 7) #b0011010)
(define-fun |main::1::t1!0@1#3$rclk$8| () (_ BitVec 7) #b1101110)
(define-fun |main::1::t1!0@1#4$rclk$8| () (_ BitVec 7) #b1101111)
(define-fun |__CPROVER_next_thread_id#9$rclk$8| () (_ BitVec 7) #b1110011)
(define-fun |main::1::t2!0@1#3$rclk$8| () (_ BitVec 7) #b1110101)
(define-fun |main::1::t2!0@1#4$rclk$8| () (_ BitVec 7) #b1110110)
(define-fun |__CPROVER_next_thread_id#10$rclk$8| () (_ BitVec 7) #b1110111)
(define-fun |main::1::t3!0@1#3$rclk$8| () (_ BitVec 7) #b1111001)
(define-fun |main::1::t3!0@1#4$rclk$8| () (_ BitVec 7) #b1111010)
(define-fun |__CPROVER_next_thread_id#11$rclk$8| () (_ BitVec 7) #b1111011)
)

real	0m0.459s
user	0m0.452s
sys	0m0.007s
State: AC Run_time: 0.4612910747528076